CPXPARAM_MIP_Tolerances_MIPGap                   0
Tried aggregator 1 time.
MIP Presolve eliminated 619 rows and 11 columns.
MIP Presolve modified 6820 coefficients.
Reduced MIP has 13439 rows, 7074 columns, and 39664 nonzeros.
Reduced MIP has 6466 binaries, 0 generals, 0 SOSs, and 0 indicators.
Presolve time = 0.03 sec. (29.32 ticks)
Found incumbent of value 84.000000 after 0.13 sec. (104.51 ticks)
Probing time = 0.02 sec. (6.12 ticks)
Tried aggregator 1 time.
Reduced MIP has 13439 rows, 7074 columns, and 39664 nonzeros.
Reduced MIP has 6466 binaries, 0 generals, 0 SOSs, and 0 indicators.
Presolve time = 0.03 sec. (21.10 ticks)
Probing time = 0.01 sec. (5.70 ticks)
Clique table members: 2177.
MIP emphasis: balance optimality and feasibility.
MIP search method: dynamic search.
Parallel mode: deterministic, using up to 8 threads.
Root relaxation solution time = 0.08 sec. (90.24 ticks)

        Nodes                                         Cuts/
   Node  Left     Objective  IInf  Best Integer    Best Bound    ItCnt     Gap

*     0+    0                           84.0000       11.0000            86.90%
      0     0       11.0000    74       84.0000       11.0000      567   86.90%
      0     0       11.0570   104       84.0000     Cuts: 136     1127   86.84%
      0     0       21.0344   118       84.0000     Cuts: 913     1945   74.96%
      0     0       26.0362   162       84.0000     Cuts: 350     2163   69.00%
      0     0       30.0241   168       84.0000     Cuts: 352     2288   64.26%
      0     0       36.0016   174       84.0000     Cuts: 626     2491   57.14%
*     0+    0                           72.0000       36.0016            50.00%
      0     0       37.0057   119       72.0000     Cuts: 244     2696   48.60%
      0     0       40.0004   137       72.0000     Cuts: 101     2992   44.44%
      0     0       41.0024   187       72.0000      Cuts: 83     3376   43.05%
      0     0       41.0301   193       72.0000     Cuts: 263     3702   43.01%
*     0+    0                           53.0000       41.0301            22.58%
      0     0       41.5000   117       53.0000     Cuts: 199     4033   21.70%
      0     0       42.0000   115       53.0000     Cuts: 180     4218   20.75%
      0     0       42.0000   150       53.0000      Cuts: 73     4370   20.75%
*     0+    0                           52.0000       42.0000            19.23%
      0     0       42.0000   110       52.0000      Cuts: 17     4527   19.23%
      0     0       42.0000   144       52.0000     Cuts: 147     4710   19.23%
      0     2       42.0000    92       52.0000       42.0000     4710   19.23%
Elapsed time = 8.11 sec. (3285.25 ticks, tree = 0.01 MB, solutions = 4)
    123    79       46.0001    43       52.0000       42.0000     9114   19.23%
    304   202       46.0000    49       52.0000       42.0000    12891   19.23%
    469   298       48.0004    44       52.0000       42.0000    16717   19.23%
    661   414       46.0006    81       52.0000       42.0000    20993   19.23%
    685   479        cutoff             52.0000       42.0000    23290   19.23%
*   718+  484                           50.0000       42.0000            16.00%
    723   415       45.0001    41       50.0000       42.0000    25376   16.00%
    798   452       44.0006   111       50.0000       42.0000    27720   16.00%
    899   512       49.0000    37       50.0000       42.0000    29596   16.00%
    990   593       44.0414   353       50.0000       42.0000    32773   16.00%
   1615  1043       48.0055    32       50.0000       42.0000    55069   16.00%
Elapsed time = 19.17 sec. (6593.40 ticks, tree = 5.12 MB, solutions = 8)
   2425  1603        cutoff             50.0000       42.0000    78573   16.00%
   3322  2256       44.0009    97       50.0000       42.0001   101115   16.00%
*  3411+ 2380                           49.0000       42.0021            14.28%
*  3575+ 1462                           48.0000       43.8571             8.63%
*  3575+  974                           47.0000       44.0000             6.38%
   3575   975       44.0000    37       47.0000       44.0000   135194    6.38%
   3608    41       44.0000    33       47.0000       44.0000   136608    6.38%
*  3654+   60                           44.0000       44.0000             0.00%
   3658    70       45.0000   208       44.0000       44.0000   145040    0.00%
   3660    67       44.0011   719       44.0000       44.0000   144280    0.00%

GUB cover cuts applied:  6
Clique cuts applied:  363
Cover cuts applied:  17
Implied bound cuts applied:  38
Flow cuts applied:  33
Mixed integer rounding cuts applied:  277
Zero-half cuts applied:  8
Gomory fractional cuts applied:  1

Root node processing (before b&c):
  Real time             =    7.97 sec. (3234.70 ticks)
Parallel b&c, 8 threads:
  Real time             =   55.61 sec. (19541.47 ticks)
  Sync time (average)   =    5.37 sec.
  Wait time (average)   =    0.03 sec.
                          ------------
Total (root+branch&cut) =   63.58 sec. (22776.17 ticks)
